WARNING: for repeatability, setting FPU to use double precision
============================[ Problem Statistics ]=============================
|                                                                             |
|  Number of variables:           800                                         |
|  Number of clauses:           33540                                         |
|  Parse time:                   0.01 s                                       |
|                                                                             |
c ============================[ Search Statistics ]==============================
c | Conflicts |          ORIGINAL         |          LEARNT          | Progress |
c |           |    Vars  Clauses Literals |    Limit  Clauses Lit/Cl |          |
c ===============================================================================
c Switched to VSIDS.
c Switched to LRB.
c Switched to VSIDS.
c Switched to LRB.
c Switched to VSIDS.
c Switched to LRB.
c Switched to VSIDS.
c Switched to LRB.
c Switched to VSIDS.
c Switched to LRB.
c Switched to VSIDS.
c Switched to LRB.
c Switched to VSIDS.
c ===============================================================================
restarts                  : 85670
conflicts                 : 18732427       (5314 /sec)
decisions                 : 37108578       (0.00 % random) (10527 /sec)
propagations              : 859098724      (243700 /sec)
conflict literals         : 5214185026     (9.00 % deleted)

conflicts w/ DIP found    : 11450129       (61.12 % of conflicts)
conflicts w/ dangerous DIP: 0              (0.00 % of conflicts)
conflicts w/ DIP-learning : 6258           (0.03 % of conflicts)
decisions on ext vars     : 744            (0.00 % of decisions)
total ext vars            : 1302        
tried delete ext vars     : 334         
deleted ext vars          : 334         
max ext vars              : 968         

Memory used               : 360.00 MB
CPU time                  : 3525.23 s
DIP computation time      : 98.9633 s (2.81 % of total time)
ER_sel time               : 35.0276 s
ER_add time               : 0.008183 s
ER_delC time              : 0 s
ER_delV time              : 0.607215 s
ER_sub time               : 37.9308 s
ER_stat time              : 0 s

INDETERMINATE
